# Test correctness GCMC restart 
# Restart should exactly reproduce original simulation

### LJ ###

variable        mu equal -1.25
variable        temp equal 2.0
variable        disp equal 1.0
variable        lbox equal 5.0
variable        nequil equal 100
variable        nsteps equal 1000
variable        restartfile string restart.gcmc.lj

# global model settings

units           lj
atom_style      atomic
pair_style      lj/cut 3.0
pair_modify     tail no # turn of to avoid triggering full_energy

# box and other settings

region          box block 0 ${lbox} 0 ${lbox} 0 ${lbox}
create_box      1 box
group           gcmcgroup type 1
pair_coeff      * * 1.0 1.0
mass            * 1.0

# gcmc

fix             mygcmc gcmcgroup gcmc 1 100 100 1 29494 ${temp} ${mu} ${disp}

# output

compute_modify  thermo_temp dynamic/dof yes
thermo_style    custom step temp press pe ke density atoms

# run equilibration and write restart

run             ${nequil}
write_restart   ${restartfile}

# run simulation, store reference values, and clear simulation

run             ${nsteps}
variable        tmp equal temp
variable        tref equal ${tmp}
variable        tmp equal press
variable        pref equal ${tmp}
variable        tmp equal sum(f_mygcmc)
variable        gcmcref equal ${tmp}
clear

# rerun simulation from restart

read_restart    ${restartfile}

# gcmc

fix             mygcmc gcmcgroup gcmc 1 100 100 1 29494 ${temp} ${mu} ${disp}

# output

compute_modify  thermo_temp dynamic/dof yes
thermo_style    custom step temp press pe ke density atoms

# rerun simulation from restart, measure errors, and clear

run             ${nsteps}
variable        tmp equal temp
variable        terror equal ${tmp} - v_tref
variable        tmp equal press
variable        perror equal ${tmp} - v_pref
variable        tmp equal sum(f_mygcmc)
variable        gcmcerror equal ${tmp} - v_gcmcref
clear

# report restart errors

print "LJ: change in temperature from restart = ${terror} "
print "LJ: change in pressure from restart = ${perror} "
print "LJ: change in fix GCMC from restart = ${gcmcerror} "

#### H2O ###

variable        mu equal -8.1
variable	disp equal 0.5
variable        temp equal 338.0
variable        lbox equal 10.0
variable        spacing equal 5.0
variable        nequil equal 100
variable        nsteps equal 100
variable        nevery equal 10
variable        restartfile string restart.gcmc.h2o

# global model settings

units           real
atom_style      full
boundary        p p p
pair_style      lj/cut/coul/long  14 
pair_modify     mix arithmetic tail yes
kspace_style    ewald 0.0001
bond_style      harmonic
angle_style     harmonic

# box, start molecules on simple cubic lattice

lattice 	sc ${spacing}
region          box block 0 ${lbox} 0 ${lbox} 0 ${lbox} units box
create_box      2 box                       &
                bond/types 1                &
                angle/types 1               &
                extra/bond/per/atom 2       &
                extra/angle/per/atom 1      &
                extra/special/per/atom 2

molecule        h2omol H2O.txt
create_atoms   	0 box mol h2omol 464563 units box

# rigid SPC/E water model

pair_coeff      1 1 0.15535 3.166
pair_coeff      * 2 0.0000 0.0000       

bond_coeff      1     1000       1.0   
angle_coeff     1      100       109.47

# masses

mass 1 15.9994 
mass 2 1.0

# MD settings

group           h2o type 1 2
neighbor        2.0 bin
neigh_modify    every 1 delay 1 check yes
velocity       	all create ${temp} 54654
timestep        1.0

# rigid constraints with thermostat 

fix             mynvt h2o nvt temp ${temp} ${temp} 100
fix             wshake h2o shake 0.0001 50 0 b 1 a 1 mol h2omol

# important to make temperature dofs dynamic

compute_modify  thermo_temp dynamic/dof yes
compute_modify  mynvt_temp dynamic/dof yes

# output

thermo_style    custom step temp press pe ke density atoms

# gcmc

variable        tfac equal 5.0/3.0 # (3 trans + 2 rot)/(3 trans)
fix             mygcmc h2o gcmc ${nevery} 100 0 0 54341 ${temp} ${mu} ${disp} mol &
                h2omol tfac_insert ${tfac} group h2o shake wshake

# run equilibration and write restart

run             ${nequil}
write_restart   ${restartfile}

# run simulation, store reference values, and clear simulation

run             ${nsteps}
variable        tmp equal temp
variable        tref equal ${tmp}
variable        tmp equal press
variable        pref equal ${tmp}
variable        tmp equal sum(f_mygcmc)
variable        gcmcref equal ${tmp}
clear

# rerun simulation from restart

read_restart    ${restartfile}
molecule        h2omol H2O.txt
kspace_style    ewald 0.0001
fix             mynvt h2o nvt temp ${temp} ${temp} 100
fix             wshake h2o shake 0.0001 50 0 b 1 a 1 mol h2omol

# important to make temperature dofs dynamic

compute_modify  thermo_temp dynamic/dof yes
compute_modify  mynvt_temp dynamic/dof yes

# gcmc

fix             mygcmc h2o gcmc ${nevery} 100 0 0 54341 ${temp} ${mu} ${disp} mol &
                h2omol tfac_insert ${tfac} group h2o shake wshake

# output

compute_modify  thermo_temp dynamic/dof yes
thermo_style    custom step temp press pe ke density atoms

# rerun simulation from restart, measure errors, and clear

run             ${nsteps}
variable        tmp equal temp
variable        terror equal ${tmp} - v_tref
variable        tmp equal press
variable        perror equal ${tmp} - v_pref
variable        tmp equal sum(f_mygcmc)
variable        gcmcerror equal ${tmp} - v_gcmcref
clear

# report restart errors

print "H2O: change in temperature from restart = ${terror} "
print "H2O: change in pressure from restart = ${perror} "
print "H2O: change in fix GCMC from restart = ${gcmcerror} "

